c Sudoku solution
p cnf 729 0
141 0
193 0
215 0
269 0
339 0
374 0
422 0
459 0
483 0
494 0
525 0
591 0
633 0
661 0
677 0
713 0
737 0
754 0
785 0
829 0
858 0
951 0
936 0
835 0
945 0
749 0
988 0
884 0
728 0
811 0
912 0
924 0
771 0
431 0
626 0
127 0
655 0
475 0
395 0
165 0
244 0
564 0
538 0
614 0
417 0
519 0
698 0
689 0
642 0
134 0
232 0
179 0
118 0
316 0
278 0
973 0
999 0
897 0
967 0
547 0
553 0
223 0
321 0
281 0
387 0
182 0
296 0
156 0
257 0
352 0
586 0
572 0
876 0
792 0
766 0
862 0
843 0
348 0
363 0
446 0
468 0
